nohome = 
[|0,0,0,1,0,0,0,0,0,0,0,0,0,0,0,0,0,0,1,0,0,0,0,0,1,0,0,0,0,0,0,0,0
 |0,0,0,0,0,0,0,0,0,0,0,0,0,0,0,0,0,0,0,0,0,0,0,0,1,0,0,0,0,0,0,0,0
 |0,0,0,0,0,0,0,0,0,0,0,0,0,0,0,0,0,0,0,0,0,0,0,0,0,0,0,0,0,0,0,0,0
 |0,0,0,1,0,0,0,0,0,0,0,0,0,0,0,0,0,0,0,0,0,1,0,0,0,0,0,0,0,0,0,0,0
 |0,0,0,0,0,0,0,0,0,0,0,0,1,0,0,1,0,0,0,0,0,0,0,0,0,0,1,0,0,0,0,0,0
 |0,0,0,0,1,0,0,0,0,0,0,0,0,0,0,0,0,0,0,0,0,0,0,0,0,0,0,0,0,0,0,0,1
 |0,0,0,0,0,0,0,0,0,0,0,0,0,0,0,1,0,0,0,0,0,0,0,0,0,0,0,0,0,0,0,0,0
 |0,0,0,0,0,0,0,0,0,0,0,0,0,0,0,0,0,0,0,0,1,0,0,0,0,0,0,0,0,0,0,0,0
 |0,0,0,0,0,0,0,0,0,0,0,0,0,0,0,0,0,0,0,0,0,0,0,0,0,0,0,0,0,0,0,0,0
 |0,0,0,0,0,0,0,0,0,0,0,0,0,0,0,0,0,1,0,0,0,0,0,0,0,0,0,0,1,0,0,0,0
 |0,0,0,0,0,0,0,0,0,0,0,0,0,0,0,0,0,0,0,0,0,0,0,0,0,1,0,0,1,0,0,0,0
 |0,0,0,0,0,0,0,0,0,0,0,0,0,0,0,0,0,0,0,0,0,0,0,0,0,0,0,0,0,0,0,0,0
 |0,0,0,0,0,0,0,0,0,0,0,0,0,0,0,0,0,0,0,0,0,0,0,0,0,0,0,0,0,0,0,0,0
 |0,1,0,0,0,0,0,0,0,0,0,0,1,0,1,0,0,0,0,0,0,0,0,0,0,0,0,0,0,0,0,0,0
 |];

group1 = {2,4,6,8,9,10,11};
group2 = {1,3,5,7,12,13,14};

derby_set = [{7,11,13,14}, {2,6,10}, {5,9,12}];
derby_period = [18, 1, 20];

cpairs = [{10,11}, {5,12}];

heur = [5,1,10,11,14,4,6,2,7,8,12,3,9,13];

costtable =
[|0, 1, 1, 2,
 |0, 1, 2, 1,
 |0, 1, 3, 0,
 |0, 1, 4, 0,
 |0, 1, 5, 2,
 |0, 1, 6, 2,
 |0, 1, 7, 0,
 |0, 1, 8, 1,
 |0, 1, 9, 0,
 |0, 1, 10, 1,
 |0, 1, 11, 1,
 |0, 1, 12, 0,
 |0, 1, 13, 0,
 |0, 1, 14, 2,
 |19, 1, 1, 2,
 |19, 1, 2, 1,
 |19, 1, 3, 0,
 |19, 1, 4, 0,
 |19, 1, 5, 2,
 |19, 1, 6, 2,
 |19, 1, 7, 0,
 |19, 1, 8, 0,
 |19, 1, 9, 0,
 |19, 1, 10, 1,
 |19, 1, 11, 1,
 |19, 1, 12, 0,
 |19, 1, 13, 0,
 |19, 1, 14, 2,
 |17, 1, 1, 1,
 |17, 1, 2, 1,
 |17, 1, 3, 0,
 |17, 1, 4, 1,
 |17, 1, 5, 2,
 |17, 1, 6, 2,
 |17, 1, 7, 0,
 |17, 1, 8, 0,
 |17, 1, 9, 0,
 |17, 1, 10, 2,
 |17, 1, 11, 1,
 |17, 1, 12, 0,
 |17, 1, 13, 0,
 |17, 1, 14, 2,
 |15, 1, 1, 0,
 |15, 1, 2, 0,
 |15, 1, 3, 0,
 |15, 1, 4, 1,
 |15, 1, 5, 3,
 |15, 1, 6, 2,
 |15, 1, 7, 1,
 |15, 1, 8, 0,
 |15, 1, 9, 0,
 |15, 1, 10, 2,
 |15, 1, 11, 1,
 |15, 1, 12, 0,
 |15, 1, 13, 0,
 |15, 1, 14, 2,
 |13, 1, 1, 0,
 |13, 1, 2, 0,
 |13, 1, 3, 0,
 |13, 1, 4, 1,
 |13, 1, 5, 2,
 |13, 1, 6, 2,
 |13, 1, 7, 1,
 |13, 1, 8, 0,
 |13, 1, 9, 0,
 |13, 1, 10, 2,
 |13, 1, 11, 2,
 |13, 1, 12, 0,
 |13, 1, 13, 0,
 |13, 1, 14, 1,
 |11, 1, 1, 0,
 |11, 1, 2, 0,
 |11, 1, 3, 0,
 |11, 1, 4, 1,
 |11, 1, 5, 1,
 |11, 1, 6, 2,
 |11, 1, 7, 1,
 |11, 1, 8, 0,
 |11, 1, 9, 0,
 |11, 1, 10, 1,
 |11, 1, 11, 1,
 |11, 1, 12, 0,
 |11, 1, 13, 0,
 |11, 1, 14, 0,
 |9, 1, 1, 0,
 |9, 1, 2, 0,
 |9, 1, 3, 0,
 |9, 1, 4, 1,
 |9, 1, 5, 1,
 |9, 1, 6, 2,
 |9, 1, 7, 1,
 |9, 1, 8, 0,
 |9, 1, 9, 0,
 |9, 1, 10, 1,
 |9, 1, 11, 1,
 |9, 1, 12, 0,
 |9, 1, 13, 0,
 |9, 1, 14, 0,
 |0, 3, 1, 2,
 |0, 3, 2, 1,
 |0, 3, 3, 0,
 |0, 3, 4, 0,
 |0, 3, 5, 2,
 |0, 3, 6, 2,
 |0, 3, 7, 0,
 |0, 3, 8, 1,
 |0, 3, 9, 0,
 |0, 3, 10, 1,
 |0, 3, 11, 1,
 |0, 3, 12, 0,
 |0, 3, 13, 0,
 |0, 3, 14, 3,
 |19, 3, 1, 2,
 |19, 3, 2, 1,
 |19, 3, 3, 0,
 |19, 3, 4, 0,
 |19, 3, 5, 2,
 |19, 3, 6, 2,
 |19, 3, 7, 0,
 |19, 3, 8, 0,
 |19, 3, 9, 0,
 |19, 3, 10, 1,
 |19, 3, 11, 1,
 |19, 3, 12, 0,
 |19, 3, 13, 0,
 |19, 3, 14, 3,
 |17, 3, 1, 1,
 |17, 3, 2, 1,
 |17, 3, 3, 0,
 |17, 3, 4, 1,
 |17, 3, 5, 2,
 |17, 3, 6, 2,
 |17, 3, 7, 0,
 |17, 3, 8, 0,
 |17, 3, 9, 0,
 |17, 3, 10, 2,
 |17, 3, 11, 1,
 |17, 3, 12, 0,
 |17, 3, 13, 0,
 |17, 3, 14, 3,
 |15, 3, 1, 0,
 |15, 3, 2, 0,
 |15, 3, 3, 0,
 |15, 3, 4, 1,
 |15, 3, 5, 3,
 |15, 3, 6, 2,
 |15, 3, 7, 1,
 |15, 3, 8, 0,
 |15, 3, 9, 0,
 |15, 3, 10, 2,
 |15, 3, 11, 1,
 |15, 3, 12, 0,
 |15, 3, 13, 0,
 |15, 3, 14, 3,
 |13, 3, 1, 0,
 |13, 3, 2, 0,
 |13, 3, 3, 0,
 |13, 3, 4, 1,
 |13, 3, 5, 2,
 |13, 3, 6, 2,
 |13, 3, 7, 1,
 |13, 3, 8, 0,
 |13, 3, 9, 0,
 |13, 3, 10, 2,
 |13, 3, 11, 2,
 |13, 3, 12, 0,
 |13, 3, 13, 0,
 |13, 3, 14, 2,
 |11, 3, 1, 0,
 |11, 3, 2, 0,
 |11, 3, 3, 0,
 |11, 3, 4, 1,
 |11, 3, 5, 1,
 |11, 3, 6, 2,
 |11, 3, 7, 1,
 |11, 3, 8, 0,
 |11, 3, 9, 0,
 |11, 3, 10, 1,
 |11, 3, 11, 1,
 |11, 3, 12, 0,
 |11, 3, 13, 0,
 |11, 3, 14, 1,
 |9, 3, 1, 0,
 |9, 3, 2, 0,
 |9, 3, 3, 0,
 |9, 3, 4, 1,
 |9, 3, 5, 1,
 |9, 3, 6, 2,
 |9, 3, 7, 1,
 |9, 3, 8, 0,
 |9, 3, 9, 0,
 |9, 3, 10, 1,
 |9, 3, 11, 1,
 |9, 3, 12, 0,
 |9, 3, 13, 0,
 |9, 3, 14, 1,
 |0, 5, 1, 3,
 |0, 5, 2, 1,
 |0, 5, 3, 0,
 |0, 5, 4, 1,
 |0, 5, 5, 2,
 |0, 5, 6, 1,
 |0, 5, 7, 0,
 |0, 5, 8, 1,
 |0, 5, 9, 0,
 |0, 5, 10, 1,
 |0, 5, 11, 1,
 |0, 5, 12, 0,
 |0, 5, 13, 0,
 |0, 5, 14, 3,
 |19, 5, 1, 3,
 |19, 5, 2, 1,
 |19, 5, 3, 0,
 |19, 5, 4, 1,
 |19, 5, 5, 2,
 |19, 5, 6, 1,
 |19, 5, 7, 0,
 |19, 5, 8, 0,
 |19, 5, 9, 0,
 |19, 5, 10, 1,
 |19, 5, 11, 1,
 |19, 5, 12, 0,
 |19, 5, 13, 0,
 |19, 5, 14, 3,
 |17, 5, 1, 2,
 |17, 5, 2, 1,
 |17, 5, 3, 0,
 |17, 5, 4, 2,
 |17, 5, 5, 2,
 |17, 5, 6, 1,
 |17, 5, 7, 0,
 |17, 5, 8, 0,
 |17, 5, 9, 0,
 |17, 5, 10, 2,
 |17, 5, 11, 1,
 |17, 5, 12, 0,
 |17, 5, 13, 0,
 |17, 5, 14, 3,
 |15, 5, 1, 1,
 |15, 5, 2, 0,
 |15, 5, 3, 0,
 |15, 5, 4, 2,
 |15, 5, 5, 3,
 |15, 5, 6, 1,
 |15, 5, 7, 1,
 |15, 5, 8, 0,
 |15, 5, 9, 0,
 |15, 5, 10, 2,
 |15, 5, 11, 1,
 |15, 5, 12, 0,
 |15, 5, 13, 0,
 |15, 5, 14, 3,
 |13, 5, 1, 1,
 |13, 5, 2, 0,
 |13, 5, 3, 0,
 |13, 5, 4, 2,
 |13, 5, 5, 2,
 |13, 5, 6, 1,
 |13, 5, 7, 1,
 |13, 5, 8, 0,
 |13, 5, 9, 0,
 |13, 5, 10, 2,
 |13, 5, 11, 2,
 |13, 5, 12, 0,
 |13, 5, 13, 0,
 |13, 5, 14, 2,
 |11, 5, 1, 1,
 |11, 5, 2, 0,
 |11, 5, 3, 0,
 |11, 5, 4, 2,
 |11, 5, 5, 1,
 |11, 5, 6, 1,
 |11, 5, 7, 1,
 |11, 5, 8, 0,
 |11, 5, 9, 0,
 |11, 5, 10, 1,
 |11, 5, 11, 1,
 |11, 5, 12, 0,
 |11, 5, 13, 0,
 |11, 5, 14, 1,
 |9, 5, 1, 1,
 |9, 5, 2, 0,
 |9, 5, 3, 0,
 |9, 5, 4, 2,
 |9, 5, 5, 1,
 |9, 5, 6, 1,
 |9, 5, 7, 1,
 |9, 5, 8, 0,
 |9, 5, 9, 0,
 |9, 5, 10, 1,
 |9, 5, 11, 1,
 |9, 5, 12, 0,
 |9, 5, 13, 0,
 |9, 5, 14, 1,
 |0, 7, 1, 3,
 |0, 7, 2, 1,
 |0, 7, 3, 0,
 |0, 7, 4, 1,
 |0, 7, 5, 2,
 |0, 7, 6, 1,
 |0, 7, 7, 0,
 |0, 7, 8, 1,
 |0, 7, 9, 0,
 |0, 7, 10, 1,
 |0, 7, 11, 1,
 |0, 7, 12, 0,
 |0, 7, 13, 0,
 |0, 7, 14, 3,
 |19, 7, 1, 3,
 |19, 7, 2, 1,
 |19, 7, 3, 0,
 |19, 7, 4, 1,
 |19, 7, 5, 2,
 |19, 7, 6, 1,
 |19, 7, 7, 0,
 |19, 7, 8, 0,
 |19, 7, 9, 0,
 |19, 7, 10, 1,
 |19, 7, 11, 1,
 |19, 7, 12, 0,
 |19, 7, 13, 0,
 |19, 7, 14, 3,
 |17, 7, 1, 2,
 |17, 7, 2, 1,
 |17, 7, 3, 0,
 |17, 7, 4, 2,
 |17, 7, 5, 2,
 |17, 7, 6, 1,
 |17, 7, 7, 0,
 |17, 7, 8, 0,
 |17, 7, 9, 0,
 |17, 7, 10, 2,
 |17, 7, 11, 1,
 |17, 7, 12, 0,
 |17, 7, 13, 0,
 |17, 7, 14, 3,
 |15, 7, 1, 1,
 |15, 7, 2, 0,
 |15, 7, 3, 0,
 |15, 7, 4, 2,
 |15, 7, 5, 3,
 |15, 7, 6, 1,
 |15, 7, 7, 1,
 |15, 7, 8, 0,
 |15, 7, 9, 0,
 |15, 7, 10, 2,
 |15, 7, 11, 1,
 |15, 7, 12, 0,
 |15, 7, 13, 0,
 |15, 7, 14, 3,
 |13, 7, 1, 1,
 |13, 7, 2, 0,
 |13, 7, 3, 0,
 |13, 7, 4, 2,
 |13, 7, 5, 2,
 |13, 7, 6, 1,
 |13, 7, 7, 1,
 |13, 7, 8, 0,
 |13, 7, 9, 0,
 |13, 7, 10, 2,
 |13, 7, 11, 2,
 |13, 7, 12, 0,
 |13, 7, 13, 0,
 |13, 7, 14, 2,
 |11, 7, 1, 1,
 |11, 7, 2, 0,
 |11, 7, 3, 0,
 |11, 7, 4, 2,
 |11, 7, 5, 1,
 |11, 7, 6, 1,
 |11, 7, 7, 1,
 |11, 7, 8, 0,
 |11, 7, 9, 0,
 |11, 7, 10, 1,
 |11, 7, 11, 1,
 |11, 7, 12, 0,
 |11, 7, 13, 0,
 |11, 7, 14, 1,
 |9, 7, 1, 1,
 |9, 7, 2, 0,
 |9, 7, 3, 0,
 |9, 7, 4, 2,
 |9, 7, 5, 1,
 |9, 7, 6, 1,
 |9, 7, 7, 1,
 |9, 7, 8, 0,
 |9, 7, 9, 0,
 |9, 7, 10, 1,
 |9, 7, 11, 1,
 |9, 7, 12, 0,
 |9, 7, 13, 0,
 |9, 7, 14, 1,
 |0, 9, 1, 2,
 |0, 9, 2, 1,
 |0, 9, 3, 0,
 |0, 9, 4, 0,
 |0, 9, 5, 2,
 |0, 9, 6, 2,
 |0, 9, 7, 0,
 |0, 9, 8, 1,
 |0, 9, 9, 0,
 |0, 9, 10, 1,
 |0, 9, 11, 1,
 |0, 9, 12, 0,
 |0, 9, 13, 0,
 |0, 9, 14, 2,
 |19, 9, 1, 2,
 |19, 9, 2, 1,
 |19, 9, 3, 0,
 |19, 9, 4, 0,
 |19, 9, 5, 2,
 |19, 9, 6, 2,
 |19, 9, 7, 0,
 |19, 9, 8, 0,
 |19, 9, 9, 0,
 |19, 9, 10, 1,
 |19, 9, 11, 1,
 |19, 9, 12, 0,
 |19, 9, 13, 0,
 |19, 9, 14, 2,
 |17, 9, 1, 1,
 |17, 9, 2, 1,
 |17, 9, 3, 0,
 |17, 9, 4, 1,
 |17, 9, 5, 2,
 |17, 9, 6, 2,
 |17, 9, 7, 0,
 |17, 9, 8, 0,
 |17, 9, 9, 0,
 |17, 9, 10, 2,
 |17, 9, 11, 1,
 |17, 9, 12, 0,
 |17, 9, 13, 0,
 |17, 9, 14, 2,
 |15, 9, 1, 0,
 |15, 9, 2, 0,
 |15, 9, 3, 0,
 |15, 9, 4, 1,
 |15, 9, 5, 3,
 |15, 9, 6, 2,
 |15, 9, 7, 1,
 |15, 9, 8, 0,
 |15, 9, 9, 0,
 |15, 9, 10, 2,
 |15, 9, 11, 1,
 |15, 9, 12, 0,
 |15, 9, 13, 0,
 |15, 9, 14, 2,
 |13, 9, 1, 0,
 |13, 9, 2, 0,
 |13, 9, 3, 0,
 |13, 9, 4, 1,
 |13, 9, 5, 2,
 |13, 9, 6, 2,
 |13, 9, 7, 1,
 |13, 9, 8, 0,
 |13, 9, 9, 0,
 |13, 9, 10, 2,
 |13, 9, 11, 2,
 |13, 9, 12, 0,
 |13, 9, 13, 0,
 |13, 9, 14, 1,
 |11, 9, 1, 0,
 |11, 9, 2, 0,
 |11, 9, 3, 0,
 |11, 9, 4, 1,
 |11, 9, 5, 1,
 |11, 9, 6, 2,
 |11, 9, 7, 1,
 |11, 9, 8, 0,
 |11, 9, 9, 0,
 |11, 9, 10, 1,
 |11, 9, 11, 1,
 |11, 9, 12, 0,
 |11, 9, 13, 0,
 |11, 9, 14, 0,
 |9, 9, 1, 0,
 |9, 9, 2, 0,
 |9, 9, 3, 0,
 |9, 9, 4, 1,
 |9, 9, 5, 1,
 |9, 9, 6, 2,
 |9, 9, 7, 1,
 |9, 9, 8, 0,
 |9, 9, 9, 0,
 |9, 9, 10, 1,
 |9, 9, 11, 1,
 |9, 9, 12, 0,
 |9, 9, 13, 0,
 |9, 9, 14, 0,
 |0, 11, 1, 2,
 |0, 11, 2, 1,
 |0, 11, 3, 0,
 |0, 11, 4, 0,
 |0, 11, 5, 2,
 |0, 11, 6, 2,
 |0, 11, 7, 0,
 |0, 11, 8, 1,
 |0, 11, 9, 0,
 |0, 11, 10, 1,
 |0, 11, 11, 1,
 |0, 11, 12, 0,
 |0, 11, 13, 0,
 |0, 11, 14, 3,
 |19, 11, 1, 2,
 |19, 11, 2, 1,
 |19, 11, 3, 0,
 |19, 11, 4, 0,
 |19, 11, 5, 2,
 |19, 11, 6, 2,
 |19, 11, 7, 0,
 |19, 11, 8, 0,
 |19, 11, 9, 0,
 |19, 11, 10, 1,
 |19, 11, 11, 1,
 |19, 11, 12, 0,
 |19, 11, 13, 0,
 |19, 11, 14, 3,
 |17, 11, 1, 1,
 |17, 11, 2, 1,
 |17, 11, 3, 0,
 |17, 11, 4, 1,
 |17, 11, 5, 2,
 |17, 11, 6, 2,
 |17, 11, 7, 0,
 |17, 11, 8, 0,
 |17, 11, 9, 0,
 |17, 11, 10, 2,
 |17, 11, 11, 1,
 |17, 11, 12, 0,
 |17, 11, 13, 0,
 |17, 11, 14, 3,
 |15, 11, 1, 0,
 |15, 11, 2, 0,
 |15, 11, 3, 0,
 |15, 11, 4, 1,
 |15, 11, 5, 3,
 |15, 11, 6, 2,
 |15, 11, 7, 1,
 |15, 11, 8, 0,
 |15, 11, 9, 0,
 |15, 11, 10, 2,
 |15, 11, 11, 1,
 |15, 11, 12, 0,
 |15, 11, 13, 0,
 |15, 11, 14, 3,
 |13, 11, 1, 0,
 |13, 11, 2, 0,
 |13, 11, 3, 0,
 |13, 11, 4, 1,
 |13, 11, 5, 2,
 |13, 11, 6, 2,
 |13, 11, 7, 1,
 |13, 11, 8, 0,
 |13, 11, 9, 0,
 |13, 11, 10, 2,
 |13, 11, 11, 2,
 |13, 11, 12, 0,
 |13, 11, 13, 0,
 |13, 11, 14, 2,
 |11, 11, 1, 0,
 |11, 11, 2, 0,
 |11, 11, 3, 0,
 |11, 11, 4, 1,
 |11, 11, 5, 1,
 |11, 11, 6, 2,
 |11, 11, 7, 1,
 |11, 11, 8, 0,
 |11, 11, 9, 0,
 |11, 11, 10, 1,
 |11, 11, 11, 1,
 |11, 11, 12, 0,
 |11, 11, 13, 0,
 |11, 11, 14, 1,
 |9, 11, 1, 0,
 |9, 11, 2, 0,
 |9, 11, 3, 0,
 |9, 11, 4, 1,
 |9, 11, 5, 1,
 |9, 11, 6, 2,
 |9, 11, 7, 1,
 |9, 11, 8, 0,
 |9, 11, 9, 0,
 |9, 11, 10, 1,
 |9, 11, 11, 1,
 |9, 11, 12, 0,
 |9, 11, 13, 0,
 |9, 11, 14, 1,
 |0, 13, 1, 3,
 |0, 13, 2, 1,
 |0, 13, 3, 0,
 |0, 13, 4, 1,
 |0, 13, 5, 2,
 |0, 13, 6, 1,
 |0, 13, 7, 0,
 |0, 13, 8, 1,
 |0, 13, 9, 0,
 |0, 13, 10, 1,
 |0, 13, 11, 1,
 |0, 13, 12, 0,
 |0, 13, 13, 0,
 |0, 13, 14, 3,
 |19, 13, 1, 3,
 |19, 13, 2, 1,
 |19, 13, 3, 0,
 |19, 13, 4, 1,
 |19, 13, 5, 2,
 |19, 13, 6, 1,
 |19, 13, 7, 0,
 |19, 13, 8, 0,
 |19, 13, 9, 0,
 |19, 13, 10, 1,
 |19, 13, 11, 1,
 |19, 13, 12, 0,
 |19, 13, 13, 0,
 |19, 13, 14, 3,
 |17, 13, 1, 2,
 |17, 13, 2, 1,
 |17, 13, 3, 0,
 |17, 13, 4, 2,
 |17, 13, 5, 2,
 |17, 13, 6, 1,
 |17, 13, 7, 0,
 |17, 13, 8, 0,
 |17, 13, 9, 0,
 |17, 13, 10, 2,
 |17, 13, 11, 1,
 |17, 13, 12, 0,
 |17, 13, 13, 0,
 |17, 13, 14, 3,
 |15, 13, 1, 1,
 |15, 13, 2, 0,
 |15, 13, 3, 0,
 |15, 13, 4, 2,
 |15, 13, 5, 3,
 |15, 13, 6, 1,
 |15, 13, 7, 1,
 |15, 13, 8, 0,
 |15, 13, 9, 0,
 |15, 13, 10, 2,
 |15, 13, 11, 1,
 |15, 13, 12, 0,
 |15, 13, 13, 0,
 |15, 13, 14, 3,
 |13, 13, 1, 1,
 |13, 13, 2, 0,
 |13, 13, 3, 0,
 |13, 13, 4, 2,
 |13, 13, 5, 2,
 |13, 13, 6, 1,
 |13, 13, 7, 1,
 |13, 13, 8, 0,
 |13, 13, 9, 0,
 |13, 13, 10, 2,
 |13, 13, 11, 2,
 |13, 13, 12, 0,
 |13, 13, 13, 0,
 |13, 13, 14, 2,
 |11, 13, 1, 1,
 |11, 13, 2, 0,
 |11, 13, 3, 0,
 |11, 13, 4, 2,
 |11, 13, 5, 1,
 |11, 13, 6, 1,
 |11, 13, 7, 1,
 |11, 13, 8, 0,
 |11, 13, 9, 0,
 |11, 13, 10, 1,
 |11, 13, 11, 1,
 |11, 13, 12, 0,
 |11, 13, 13, 0,
 |11, 13, 14, 1,
 |9, 13, 1, 1,
 |9, 13, 2, 0,
 |9, 13, 3, 0,
 |9, 13, 4, 2,
 |9, 13, 5, 1,
 |9, 13, 6, 1,
 |9, 13, 7, 1,
 |9, 13, 8, 0,
 |9, 13, 9, 0,
 |9, 13, 10, 1,
 |9, 13, 11, 1,
 |9, 13, 12, 0,
 |9, 13, 13, 0,
 |9, 13, 14, 1,
 |0, 8, 1, 1,
 |0, 8, 2, 0,
 |0, 8, 3, 0,
 |0, 8, 4, 2,
 |0, 8, 5, 1,
 |0, 8, 6, 0,
 |0, 8, 7, 1,
 |0, 8, 8, 0,
 |0, 8, 9, 0,
 |0, 8, 10, 1,
 |0, 8, 11, 1,
 |0, 8, 12, 0,
 |0, 8, 13, 0,
 |0, 8, 14, 1,
 |19, 8, 1, 1,
 |19, 8, 2, 0,
 |19, 8, 3, 0,
 |19, 8, 4, 2,
 |19, 8, 5, 1,
 |19, 8, 6, 0,
 |19, 8, 7, 1,
 |19, 8, 8, 1,
 |19, 8, 9, 0,
 |19, 8, 10, 1,
 |19, 8, 11, 1,
 |19, 8, 12, 0,
 |19, 8, 13, 0,
 |19, 8, 14, 1,
 |17, 8, 1, 2,
 |17, 8, 2, 0,
 |17, 8, 3, 0,
 |17, 8, 4, 1,
 |17, 8, 5, 1,
 |17, 8, 6, 0,
 |17, 8, 7, 1,
 |17, 8, 8, 1,
 |17, 8, 9, 0,
 |17, 8, 10, 0,
 |17, 8, 11, 1,
 |17, 8, 12, 0,
 |17, 8, 13, 0,
 |17, 8, 14, 1,
 |15, 8, 1, 3,
 |15, 8, 2, 1,
 |15, 8, 3, 0,
 |15, 8, 4, 1,
 |15, 8, 5, 0,
 |15, 8, 6, 0,
 |15, 8, 7, 0,
 |15, 8, 8, 1,
 |15, 8, 9, 0,
 |15, 8, 10, 0,
 |15, 8, 11, 1,
 |15, 8, 12, 0,
 |15, 8, 13, 0,
 |15, 8, 14, 1,
 |13, 8, 1, 3,
 |13, 8, 2, 1,
 |13, 8, 3, 0,
 |13, 8, 4, 1,
 |13, 8, 5, 1,
 |13, 8, 6, 0,
 |13, 8, 7, 0,
 |13, 8, 8, 1,
 |13, 8, 9, 0,
 |13, 8, 10, 0,
 |13, 8, 11, 0,
 |13, 8, 12, 0,
 |13, 8, 13, 0,
 |13, 8, 14, 2,
 |11, 8, 1, 3,
 |11, 8, 2, 1,
 |11, 8, 3, 0,
 |11, 8, 4, 1,
 |11, 8, 5, 2,
 |11, 8, 6, 0,
 |11, 8, 7, 0,
 |11, 8, 8, 1,
 |11, 8, 9, 0,
 |11, 8, 10, 1,
 |11, 8, 11, 1,
 |11, 8, 12, 0,
 |11, 8, 13, 0,
 |11, 8, 14, 3,
 |9, 8, 1, 3,
 |9, 8, 2, 1,
 |9, 8, 3, 0,
 |9, 8, 4, 1,
 |9, 8, 5, 2,
 |9, 8, 6, 0,
 |9, 8, 7, 0,
 |9, 8, 8, 1,
 |9, 8, 9, 0,
 |9, 8, 10, 1,
 |9, 8, 11, 1,
 |9, 8, 12, 0,
 |9, 8, 13, 0,
 |9, 8, 14, 3,
 |0, 10, 1, 1,
 |0, 10, 2, 0,
 |0, 10, 3, 0,
 |0, 10, 4, 2,
 |0, 10, 5, 1,
 |0, 10, 6, 0,
 |0, 10, 7, 1,
 |0, 10, 8, 0,
 |0, 10, 9, 0,
 |0, 10, 10, 1,
 |0, 10, 11, 1,
 |0, 10, 12, 0,
 |0, 10, 13, 0,
 |0, 10, 14, 0,
 |19, 10, 1, 1,
 |19, 10, 2, 0,
 |19, 10, 3, 0,
 |19, 10, 4, 2,
 |19, 10, 5, 1,
 |19, 10, 6, 0,
 |19, 10, 7, 1,
 |19, 10, 8, 1,
 |19, 10, 9, 0,
 |19, 10, 10, 1,
 |19, 10, 11, 1,
 |19, 10, 12, 0,
 |19, 10, 13, 0,
 |19, 10, 14, 0,
 |17, 10, 1, 2,
 |17, 10, 2, 0,
 |17, 10, 3, 0,
 |17, 10, 4, 1,
 |17, 10, 5, 1,
 |17, 10, 6, 0,
 |17, 10, 7, 1,
 |17, 10, 8, 1,
 |17, 10, 9, 0,
 |17, 10, 10, 0,
 |17, 10, 11, 1,
 |17, 10, 12, 0,
 |17, 10, 13, 0,
 |17, 10, 14, 0,
 |15, 10, 1, 3,
 |15, 10, 2, 1,
 |15, 10, 3, 0,
 |15, 10, 4, 1,
 |15, 10, 5, 0,
 |15, 10, 6, 0,
 |15, 10, 7, 0,
 |15, 10, 8, 1,
 |15, 10, 9, 0,
 |15, 10, 10, 0,
 |15, 10, 11, 1,
 |15, 10, 12, 0,
 |15, 10, 13, 0,
 |15, 10, 14, 0,
 |13, 10, 1, 3,
 |13, 10, 2, 1,
 |13, 10, 3, 0,
 |13, 10, 4, 1,
 |13, 10, 5, 1,
 |13, 10, 6, 0,
 |13, 10, 7, 0,
 |13, 10, 8, 1,
 |13, 10, 9, 0,
 |13, 10, 10, 0,
 |13, 10, 11, 0,
 |13, 10, 12, 0,
 |13, 10, 13, 0,
 |13, 10, 14, 1,
 |11, 10, 1, 3,
 |11, 10, 2, 1,
 |11, 10, 3, 0,
 |11, 10, 4, 1,
 |11, 10, 5, 2,
 |11, 10, 6, 0,
 |11, 10, 7, 0,
 |11, 10, 8, 1,
 |11, 10, 9, 0,
 |11, 10, 10, 1,
 |11, 10, 11, 1,
 |11, 10, 12, 0,
 |11, 10, 13, 0,
 |11, 10, 14, 2,
 |9, 10, 1, 3,
 |9, 10, 2, 1,
 |9, 10, 3, 0,
 |9, 10, 4, 1,
 |9, 10, 5, 2,
 |9, 10, 6, 0,
 |9, 10, 7, 0,
 |9, 10, 8, 1,
 |9, 10, 9, 0,
 |9, 10, 10, 1,
 |9, 10, 11, 1,
 |9, 10, 12, 0,
 |9, 10, 13, 0,
 |9, 10, 14, 2,
 |0, 12, 1, 0,
 |0, 12, 2, 0,
 |0, 12, 3, 0,
 |0, 12, 4, 1,
 |0, 12, 5, 1,
 |0, 12, 6, 0,
 |0, 12, 7, 1,
 |0, 12, 8, 0,
 |0, 12, 9, 0,
 |0, 12, 10, 1,
 |0, 12, 11, 1,
 |0, 12, 12, 0,
 |0, 12, 13, 0,
 |0, 12, 14, 0,
 |19, 12, 1, 0,
 |19, 12, 2, 0,
 |19, 12, 3, 0,
 |19, 12, 4, 1,
 |19, 12, 5, 1,
 |19, 12, 6, 0,
 |19, 12, 7, 1,
 |19, 12, 8, 1,
 |19, 12, 9, 0,
 |19, 12, 10, 1,
 |19, 12, 11, 1,
 |19, 12, 12, 0,
 |19, 12, 13, 0,
 |19, 12, 14, 0,
 |17, 12, 1, 1,
 |17, 12, 2, 0,
 |17, 12, 3, 0,
 |17, 12, 4, 0,
 |17, 12, 5, 1,
 |17, 12, 6, 0,
 |17, 12, 7, 1,
 |17, 12, 8, 1,
 |17, 12, 9, 0,
 |17, 12, 10, 0,
 |17, 12, 11, 1,
 |17, 12, 12, 0,
 |17, 12, 13, 0,
 |17, 12, 14, 0,
 |15, 12, 1, 2,
 |15, 12, 2, 1,
 |15, 12, 3, 0,
 |15, 12, 4, 0,
 |15, 12, 5, 0,
 |15, 12, 6, 0,
 |15, 12, 7, 0,
 |15, 12, 8, 1,
 |15, 12, 9, 0,
 |15, 12, 10, 0,
 |15, 12, 11, 1,
 |15, 12, 12, 0,
 |15, 12, 13, 0,
 |15, 12, 14, 0,
 |13, 12, 1, 2,
 |13, 12, 2, 1,
 |13, 12, 3, 0,
 |13, 12, 4, 0,
 |13, 12, 5, 1,
 |13, 12, 6, 0,
 |13, 12, 7, 0,
 |13, 12, 8, 1,
 |13, 12, 9, 0,
 |13, 12, 10, 0,
 |13, 12, 11, 0,
 |13, 12, 12, 0,
 |13, 12, 13, 0,
 |13, 12, 14, 1,
 |11, 12, 1, 2,
 |11, 12, 2, 1,
 |11, 12, 3, 0,
 |11, 12, 4, 0,
 |11, 12, 5, 2,
 |11, 12, 6, 0,
 |11, 12, 7, 0,
 |11, 12, 8, 1,
 |11, 12, 9, 0,
 |11, 12, 10, 1,
 |11, 12, 11, 1,
 |11, 12, 12, 0,
 |11, 12, 13, 0,
 |11, 12, 14, 2,
 |9, 12, 1, 2,
 |9, 12, 2, 1,
 |9, 12, 3, 0,
 |9, 12, 4, 0,
 |9, 12, 5, 2,
 |9, 12, 6, 0,
 |9, 12, 7, 0,
 |9, 12, 8, 1,
 |9, 12, 9, 0,
 |9, 12, 10, 1,
 |9, 12, 11, 1,
 |9, 12, 12, 0,
 |9, 12, 13, 0,
 |9, 12, 14, 2,
 |0, 14, 1, 0,
 |0, 14, 2, 0,
 |0, 14, 3, 0,
 |0, 14, 4, 1,
 |0, 14, 5, 1,
 |0, 14, 6, 1,
 |0, 14, 7, 1,
 |0, 14, 8, 0,
 |0, 14, 9, 0,
 |0, 14, 10, 1,
 |0, 14, 11, 1,
 |0, 14, 12, 0,
 |0, 14, 13, 0,
 |0, 14, 14, 0,
 |19, 14, 1, 0,
 |19, 14, 2, 0,
 |19, 14, 3, 0,
 |19, 14, 4, 1,
 |19, 14, 5, 1,
 |19, 14, 6, 1,
 |19, 14, 7, 1,
 |19, 14, 8, 1,
 |19, 14, 9, 0,
 |19, 14, 10, 1,
 |19, 14, 11, 1,
 |19, 14, 12, 0,
 |19, 14, 13, 0,
 |19, 14, 14, 0,
 |17, 14, 1, 1,
 |17, 14, 2, 0,
 |17, 14, 3, 0,
 |17, 14, 4, 0,
 |17, 14, 5, 1,
 |17, 14, 6, 1,
 |17, 14, 7, 1,
 |17, 14, 8, 1,
 |17, 14, 9, 0,
 |17, 14, 10, 0,
 |17, 14, 11, 1,
 |17, 14, 12, 0,
 |17, 14, 13, 0,
 |17, 14, 14, 0,
 |15, 14, 1, 2,
 |15, 14, 2, 1,
 |15, 14, 3, 0,
 |15, 14, 4, 0,
 |15, 14, 5, 0,
 |15, 14, 6, 1,
 |15, 14, 7, 0,
 |15, 14, 8, 1,
 |15, 14, 9, 0,
 |15, 14, 10, 0,
 |15, 14, 11, 1,
 |15, 14, 12, 0,
 |15, 14, 13, 0,
 |15, 14, 14, 0,
 |13, 14, 1, 2,
 |13, 14, 2, 1,
 |13, 14, 3, 0,
 |13, 14, 4, 0,
 |13, 14, 5, 1,
 |13, 14, 6, 1,
 |13, 14, 7, 0,
 |13, 14, 8, 1,
 |13, 14, 9, 0,
 |13, 14, 10, 0,
 |13, 14, 11, 0,
 |13, 14, 12, 0,
 |13, 14, 13, 0,
 |13, 14, 14, 1,
 |11, 14, 1, 2,
 |11, 14, 2, 1,
 |11, 14, 3, 0,
 |11, 14, 4, 0,
 |11, 14, 5, 2,
 |11, 14, 6, 1,
 |11, 14, 7, 0,
 |11, 14, 8, 1,
 |11, 14, 9, 0,
 |11, 14, 10, 1,
 |11, 14, 11, 1,
 |11, 14, 12, 0,
 |11, 14, 13, 0,
 |11, 14, 14, 2,
 |9, 14, 1, 2,
 |9, 14, 2, 1,
 |9, 14, 3, 0,
 |9, 14, 4, 0,
 |9, 14, 5, 2,
 |9, 14, 6, 1,
 |9, 14, 7, 0,
 |9, 14, 8, 1,
 |9, 14, 9, 0,
 |9, 14, 10, 1,
 |9, 14, 11, 1,
 |9, 14, 12, 0,
 |9, 14, 13, 0,
 |9, 14, 14, 2,
 |0, 2, 1, 1,
 |0, 2, 2, 0,
 |0, 2, 3, 0,
 |0, 2, 4, 2,
 |0, 2, 5, 1,
 |0, 2, 6, 0,
 |0, 2, 7, 1,
 |0, 2, 8, 0,
 |0, 2, 9, 0,
 |0, 2, 10, 1,
 |0, 2, 11, 1,
 |0, 2, 12, 0,
 |0, 2, 13, 0,
 |0, 2, 14, 0,
 |19, 2, 1, 1,
 |19, 2, 2, 0,
 |19, 2, 3, 0,
 |19, 2, 4, 2,
 |19, 2, 5, 1,
 |19, 2, 6, 0,
 |19, 2, 7, 1,
 |19, 2, 8, 1,
 |19, 2, 9, 0,
 |19, 2, 10, 1,
 |19, 2, 11, 1,
 |19, 2, 12, 0,
 |19, 2, 13, 0,
 |19, 2, 14, 0,
 |17, 2, 1, 2,
 |17, 2, 2, 0,
 |17, 2, 3, 0,
 |17, 2, 4, 1,
 |17, 2, 5, 1,
 |17, 2, 6, 0,
 |17, 2, 7, 1,
 |17, 2, 8, 1,
 |17, 2, 9, 0,
 |17, 2, 10, 0,
 |17, 2, 11, 1,
 |17, 2, 12, 0,
 |17, 2, 13, 0,
 |17, 2, 14, 0,
 |15, 2, 1, 3,
 |15, 2, 2, 1,
 |15, 2, 3, 0,
 |15, 2, 4, 1,
 |15, 2, 5, 0,
 |15, 2, 6, 0,
 |15, 2, 7, 0,
 |15, 2, 8, 1,
 |15, 2, 9, 0,
 |15, 2, 10, 0,
 |15, 2, 11, 1,
 |15, 2, 12, 0,
 |15, 2, 13, 0,
 |15, 2, 14, 0,
 |13, 2, 1, 3,
 |13, 2, 2, 1,
 |13, 2, 3, 0,
 |13, 2, 4, 1,
 |13, 2, 5, 1,
 |13, 2, 6, 0,
 |13, 2, 7, 0,
 |13, 2, 8, 1,
 |13, 2, 9, 0,
 |13, 2, 10, 0,
 |13, 2, 11, 0,
 |13, 2, 12, 0,
 |13, 2, 13, 0,
 |13, 2, 14, 1,
 |11, 2, 1, 3,
 |11, 2, 2, 1,
 |11, 2, 3, 0,
 |11, 2, 4, 1,
 |11, 2, 5, 2,
 |11, 2, 6, 0,
 |11, 2, 7, 0,
 |11, 2, 8, 1,
 |11, 2, 9, 0,
 |11, 2, 10, 1,
 |11, 2, 11, 1,
 |11, 2, 12, 0,
 |11, 2, 13, 0,
 |11, 2, 14, 2,
 |9, 2, 1, 3,
 |9, 2, 2, 1,
 |9, 2, 3, 0,
 |9, 2, 4, 1,
 |9, 2, 5, 2,
 |9, 2, 6, 0,
 |9, 2, 7, 0,
 |9, 2, 8, 1,
 |9, 2, 9, 0,
 |9, 2, 10, 1,
 |9, 2, 11, 1,
 |9, 2, 12, 0,
 |9, 2, 13, 0,
 |9, 2, 14, 2,
 |0, 4, 1, 0,
 |0, 4, 2, 0,
 |0, 4, 3, 0,
 |0, 4, 4, 1,
 |0, 4, 5, 1,
 |0, 4, 6, 0,
 |0, 4, 7, 1,
 |0, 4, 8, 0,
 |0, 4, 9, 0,
 |0, 4, 10, 1,
 |0, 4, 11, 1,
 |0, 4, 12, 0,
 |0, 4, 13, 0,
 |0, 4, 14, 0,
 |19, 4, 1, 0,
 |19, 4, 2, 0,
 |19, 4, 3, 0,
 |19, 4, 4, 1,
 |19, 4, 5, 1,
 |19, 4, 6, 0,
 |19, 4, 7, 1,
 |19, 4, 8, 1,
 |19, 4, 9, 0,
 |19, 4, 10, 1,
 |19, 4, 11, 1,
 |19, 4, 12, 0,
 |19, 4, 13, 0,
 |19, 4, 14, 0,
 |17, 4, 1, 1,
 |17, 4, 2, 0,
 |17, 4, 3, 0,
 |17, 4, 4, 0,
 |17, 4, 5, 1,
 |17, 4, 6, 0,
 |17, 4, 7, 1,
 |17, 4, 8, 1,
 |17, 4, 9, 0,
 |17, 4, 10, 0,
 |17, 4, 11, 1,
 |17, 4, 12, 0,
 |17, 4, 13, 0,
 |17, 4, 14, 0,
 |15, 4, 1, 2,
 |15, 4, 2, 1,
 |15, 4, 3, 0,
 |15, 4, 4, 0,
 |15, 4, 5, 0,
 |15, 4, 6, 0,
 |15, 4, 7, 0,
 |15, 4, 8, 1,
 |15, 4, 9, 0,
 |15, 4, 10, 0,
 |15, 4, 11, 1,
 |15, 4, 12, 0,
 |15, 4, 13, 0,
 |15, 4, 14, 0,
 |13, 4, 1, 2,
 |13, 4, 2, 1,
 |13, 4, 3, 0,
 |13, 4, 4, 0,
 |13, 4, 5, 1,
 |13, 4, 6, 0,
 |13, 4, 7, 0,
 |13, 4, 8, 1,
 |13, 4, 9, 0,
 |13, 4, 10, 0,
 |13, 4, 11, 0,
 |13, 4, 12, 0,
 |13, 4, 13, 0,
 |13, 4, 14, 1,
 |11, 4, 1, 2,
 |11, 4, 2, 1,
 |11, 4, 3, 0,
 |11, 4, 4, 0,
 |11, 4, 5, 2,
 |11, 4, 6, 0,
 |11, 4, 7, 0,
 |11, 4, 8, 1,
 |11, 4, 9, 0,
 |11, 4, 10, 1,
 |11, 4, 11, 1,
 |11, 4, 12, 0,
 |11, 4, 13, 0,
 |11, 4, 14, 2,
 |9, 4, 1, 2,
 |9, 4, 2, 1,
 |9, 4, 3, 0,
 |9, 4, 4, 0,
 |9, 4, 5, 2,
 |9, 4, 6, 0,
 |9, 4, 7, 0,
 |9, 4, 8, 1,
 |9, 4, 9, 0,
 |9, 4, 10, 1,
 |9, 4, 11, 1,
 |9, 4, 12, 0,
 |9, 4, 13, 0,
 |9, 4, 14, 2,
 |0, 6, 1, 0,
 |0, 6, 2, 0,
 |0, 6, 3, 0,
 |0, 6, 4, 1,
 |0, 6, 5, 1,
 |0, 6, 6, 1,
 |0, 6, 7, 1,
 |0, 6, 8, 0,
 |0, 6, 9, 0,
 |0, 6, 10, 1,
 |0, 6, 11, 1,
 |0, 6, 12, 0,
 |0, 6, 13, 0,
 |0, 6, 14, 0,
 |19, 6, 1, 0,
 |19, 6, 2, 0,
 |19, 6, 3, 0,
 |19, 6, 4, 1,
 |19, 6, 5, 1,
 |19, 6, 6, 1,
 |19, 6, 7, 1,
 |19, 6, 8, 1,
 |19, 6, 9, 0,
 |19, 6, 10, 1,
 |19, 6, 11, 1,
 |19, 6, 12, 0,
 |19, 6, 13, 0,
 |19, 6, 14, 0,
 |17, 6, 1, 1,
 |17, 6, 2, 0,
 |17, 6, 3, 0,
 |17, 6, 4, 0,
 |17, 6, 5, 1,
 |17, 6, 6, 1,
 |17, 6, 7, 1,
 |17, 6, 8, 1,
 |17, 6, 9, 0,
 |17, 6, 10, 0,
 |17, 6, 11, 1,
 |17, 6, 12, 0,
 |17, 6, 13, 0,
 |17, 6, 14, 0,
 |15, 6, 1, 2,
 |15, 6, 2, 1,
 |15, 6, 3, 0,
 |15, 6, 4, 0,
 |15, 6, 5, 0,
 |15, 6, 6, 1,
 |15, 6, 7, 0,
 |15, 6, 8, 1,
 |15, 6, 9, 0,
 |15, 6, 10, 0,
 |15, 6, 11, 1,
 |15, 6, 12, 0,
 |15, 6, 13, 0,
 |15, 6, 14, 0,
 |13, 6, 1, 2,
 |13, 6, 2, 1,
 |13, 6, 3, 0,
 |13, 6, 4, 0,
 |13, 6, 5, 1,
 |13, 6, 6, 1,
 |13, 6, 7, 0,
 |13, 6, 8, 1,
 |13, 6, 9, 0,
 |13, 6, 10, 0,
 |13, 6, 11, 0,
 |13, 6, 12, 0,
 |13, 6, 13, 0,
 |13, 6, 14, 1,
 |11, 6, 1, 2,
 |11, 6, 2, 1,
 |11, 6, 3, 0,
 |11, 6, 4, 0,
 |11, 6, 5, 2,
 |11, 6, 6, 1,
 |11, 6, 7, 0,
 |11, 6, 8, 1,
 |11, 6, 9, 0,
 |11, 6, 10, 1,
 |11, 6, 11, 1,
 |11, 6, 12, 0,
 |11, 6, 13, 0,
 |11, 6, 14, 2,
 |9, 6, 1, 2,
 |9, 6, 2, 1,
 |9, 6, 3, 0,
 |9, 6, 4, 0,
 |9, 6, 5, 2,
 |9, 6, 6, 1,
 |9, 6, 7, 0,
 |9, 6, 8, 1,
 |9, 6, 9, 0,
 |9, 6, 10, 1,
 |9, 6, 11, 1,
 |9, 6, 12, 0,
 |9, 6, 13, 0,
 |9, 6, 14, 2,
 |];
